numNurses = 192;
hours = 72;
demand = [9 16 21 44 39 21 45 9 24 0 0 21 12 21 17 6 33 24 5 29 26 43 21 24 22 23 39 27 2 46 43 39 44 0 46 9 2 33 12 45 45 13 35 37 37 20 30 36 10 27 32 0 18 30 39 24 21 30 7 8 8 17 20 35 21 28 1 15 17 42 25 43];
minHours = 11;
maxHours = 24;
maxConsec = 5;
maxPresence = 35;